
Gurobi 10.0.3 (linux64, gurobi_cl) logging started Thu Nov  2 11:34:05 2023

Set parameter Username
Set parameter TimeLimit to value 3600
Set parameter LogFile to value "RCPSP_407.log"
Set parameter Threads to value 32
Academic license - for non-commercial use only - expires 2024-10-30
Using license file /home/jrivera6/gurobi-licenses/v1003/compute-0-39/gurobi.lic

Gurobi Optimizer version 10.0.3 build v10.0.3rc0 (linux64)
Copyright (c) 2023, Gurobi Optimization, LLC

Read MPS format model from file RCPSP_407.mps
Reading time = 0.01 seconds
RCPSP_407: 5349 rows, 2080 columns, 17994 nonzeros

CPU model: Intel(R) Xeon(R) Gold 6242 CPU @ 2.80GHz, instruction set [SSE2|AVX|AVX2|AVX512]
Thread count: 32 physical cores, 32 logical processors, using up to 32 threads

Optimize a model with 5349 rows, 2080 columns and 17994 nonzeros
Model fingerprint: 0xc06d8627
Variable types: 32 continuous, 2048 integer (2048 binary)
Coefficient statistics:
  Matrix range     [1e+00, 2e+02]
  Objective range  [1e+00, 1e+00]
  Bounds range     [1e+00, 1e+00]
  RHS range        [1e+00, 2e+02]
Presolve removed 3839 rows and 1526 columns
Presolve time: 0.14s
Presolved: 1510 rows, 554 columns, 4671 nonzeros
Variable types: 31 continuous, 523 integer (523 binary)

Root relaxation: objective 6.600000e+01, 203 iterations, 0.00 seconds (0.00 work units)

    Nodes    |    Current Node    |     Objective Bounds      |     Work
 Expl Unexpl |  Obj  Depth IntInf | Incumbent    BestBd   Gap | It/Node Time

     0     0   66.00000    0   28          -   66.00000      -     -    0s
H    0     0                     106.0000000   66.00000  37.7%     -    0s
     0     0   66.00000    0   74  106.00000   66.00000  37.7%     -    0s
     0     0   66.00000    0   66  106.00000   66.00000  37.7%     -    0s
     0     0   66.00000    0   74  106.00000   66.00000  37.7%     -    0s
H    0     0                     105.0000000   66.00000  37.1%     -    0s
     0     0   66.00000    0   72  105.00000   66.00000  37.1%     -    0s
H    0     0                     102.0000000   68.18303  33.2%     -    0s
     0     0   68.18303    0   56  102.00000   68.18303  33.2%     -    0s
     0     0   68.19059    0   62  102.00000   68.19059  33.1%     -    0s
     0     0   68.19059    0   70  102.00000   68.19059  33.1%     -    1s
     0     0   72.46026    0   90  102.00000   72.46026  29.0%     -    1s
     0     0   72.49761    0   60  102.00000   72.49761  28.9%     -    1s
     0     0   72.49761    0   40  102.00000   72.49761  28.9%     -    1s
     0     0   72.50200    0   62  102.00000   72.50200  28.9%     -    1s
     0     0   72.50200    0   52  102.00000   72.50200  28.9%     -    1s
     0     0   72.51821    0   64  102.00000   72.51821  28.9%     -    1s
     0     0   72.51821    0   60  102.00000   72.51821  28.9%     -    1s
     0     0   72.51821    0   75  102.00000   72.51821  28.9%     -    1s
     0     0   72.51821    0   73  102.00000   72.51821  28.9%     -    1s
     0     0   72.51821    0   40  102.00000   72.51821  28.9%     -    1s
     0     0   72.51821    0   45  102.00000   72.51821  28.9%     -    1s
     0     0   72.51821    0   41  102.00000   72.51821  28.9%     -    2s
H    0     0                     101.0000000   72.51821  28.2%     -    2s
     0     0   72.51821    0   53  101.00000   72.51821  28.2%     -    2s
     0     0   72.51821    0   48  101.00000   72.51821  28.2%     -    2s
     0     0   72.51821    0   36  101.00000   72.51821  28.2%     -    2s
     0     2   72.51821    0   32  101.00000   72.51821  28.2%     -    2s
H   31    61                      98.0000000   75.00000  23.5%  76.7    4s
   448   320   93.00000   16   53   98.00000   75.72659  22.7%  28.8   17s
H  451   320                      97.0000000   75.72659  21.9%  28.6   17s
* 1415  1004              31      96.0000000   75.72659  21.1%  16.6   19s
  1634  1154 infeasible   37        96.00000   75.72659  21.1%  16.2   20s
  2826  1684   89.00000   18   59   96.00000   77.01693  19.8%  13.3   30s
H 2846  1684                      96.0000000   77.01693  19.8%  13.4   30s
* 2934  1684              72      95.0000000   77.01693  18.9%  13.3   30s
H 3076  1119                      93.0000000   77.01693  17.2%  12.9   31s
  3079  1055   89.00000   41   29   93.00000   77.01693  17.2%  12.9   36s
  3081  1057   88.00000   18   51   93.00000   77.01693  17.2%  12.9   41s
  3096  1067   92.00000   63   82   93.00000   78.89981  15.2%  12.8   45s
  3130  1095   83.00000   20   75   93.00000   79.00000  15.1%  17.2   50s
H 3205  1039                      92.0000000   79.22621  13.9%  18.8   54s
  3217  1035   88.00000   23   32   92.00000   79.22621  13.9%  19.0   55s
  3738   893   84.00000   26   48   92.00000   84.00000  8.70%  20.7   60s
  6212   173 infeasible   31        92.00000   87.00000  5.43%  17.1   65s

Cutting planes:
  Learned: 5
  Gomory: 20
  Cover: 6
  Implied bound: 4
  Projected implied bound: 3
  Clique: 2
  MIR: 40
  StrongCG: 1
  Flow cover: 118
  Zero half: 2
  RLT: 15
  Relax-and-lift: 14

Explored 7978 nodes (138117 simplex iterations) in 69.03 seconds (3.00 work units)
Thread count was 32 (of 32 available processors)

Solution count 10: 92 93 95 ... 105

Optimal solution found (tolerance 1.00e-04)
Best objective 9.200000000000e+01, best bound 9.200000000000e+01, gap 0.0000%

Wrote result file 'RCPSP_407.sol'

